(set-info :Origin "This instance was generated by: BanditFuzz-- an RL fuzzer for SMT solvers" )
(set-info :Author "Joe Scott, Fed Mora, Vijay Ganesh" )
(set-info :Contact "Joe Scott, joseph.scott@uwaterloo.ca")
(set-logic QF_BV)
(declare-const bool_0 Bool)
(declare-const bool_1 Bool)
(declare-const bool_2 Bool)
(declare-const bool_3 Bool)
(declare-const bool_4 Bool)
(declare-const bv_0 (_ BitVec 32))
(declare-const bv_1 (_ BitVec 32))
(declare-const bv_2 (_ BitVec 32))
(declare-const bv_3 (_ BitVec 32))
(declare-const bv_4 (_ BitVec 32))
(assert (bvsle (bvsrem (bvnand #xd8031c98  #x8f2a78c5 ) (bvurem #x388e09a7  #x14a9c51d )) (bvsdiv (bvurem #x2ac269ef  bv_4) (bvsmod #xa5db8ca2  bv_1))))
(assert (and (not (not bool_3)) (bvule (bvurem bv_4 bv_1) (bvxor #x9e88f593  bv_4))))
(assert (bvuge (bvnand (bvsdiv bv_0 bv_1) (bvmul bv_2 bv_4)) (bvnor (bvor #x06a807cf  #xa36afcce ) (bvxor #xa70d8850  bv_4))))
(assert (xor (=> (not true) (bvule #xe6cc7423  #x047f3f62 )) (bvugt (bvsrem bv_4 #x1c6d1d99 ) (bvor bv_3 #x81f30a8a ))))
(assert (bvsgt (bvurem (bvxor #x6a13a05c  #xb73eb525 ) (bvmul bv_4 #x691c4b33 )) (bvlshr (bvor bv_3 bv_0) (bvshl bv_4 #x2fad9e84 ))))
(check-sat)
(exit)
